small
0 31 0.37
1 33 0.31
2 29 0.55
3 34 0.33
4 27 0.53
5 33 0.51
6 31 0.54
7 31 0.41
8 30 0.32
9 35 0.27
10 25 0.55
11 28 0.79
12 28 0.23
13 29 0.61
14 27 0.45
medium
0 274 72.74
1 267 77.02
2 286 64.35
3 283 60.55
4 276 60.82
5 285 50.77
6 270 91.38
7 272 84.57
8 268 42.19
9 287 57.41
10 274 88.33
11 289 22.52
12 268 88.9
13 298 30.78
14 291 46.7
large
0 1476 600.38
1 1486 600.2
2 1480 600.27
3 1497 600.01
4 1440 582.83
5 1444 600.12
6 1433 585.47
7 1455 601.15
8 1503 600.64
9 1542 597.95
10 1524 590.77
11 1431 600.02
12 1527 584.75
13 1445 600.11
14 1485 600.32

